25° run output:
{
    "Function": "euclidB500.tsp",
    "Problem dimension": [
        212,
        295,
        39,
        469,
        29,
        471,
        206,
        481,
        472,
        221,
        397,
        405,
        72,
        208,
        158,
        363,
        245,
        152,
        465,
        19,
        364,
        372,
        87,
        108,
        333,
        224,
        390,
        416,
        283,
        417,
        14,
        309,
        391,
        67,
        256,
        299,
        443,
        422,
        213,
        142,
        145,
        88,
        85,
        344,
        489,
        340,
        74,
        381,
        28,
        432,
        326,
        451,
        57,
        329,
        0,
        404,
        319,
        424,
        239,
        178,
        361,
        354,
        60,
        17,
        440,
        257,
        342,
        77,
        83,
        308,
        5,
        232,
        314,
        128,
        261,
        434,
        8,
        11,
        458,
        271,
        24,
        273,
        189,
        474,
        464,
        423,
        382,
        70,
        117,
        114,
        151,
        246,
        222,
        163,
        75,
        2,
        396,
        351,
        323,
        293,
        105,
        229,
        383,
        463,
        353,
        184,
        228,
        259,
        286,
        129,
        455,
        147,
        435,
        290,
        310,
        418,
        49,
        242,
        466,
        454,
        480,
        301,
        170,
        230,
        71,
        56,
        470,
        188,
        327,
        365,
        181,
        406,
        303,
        433,
        115,
        194,
        297,
        332,
        69,
        270,
        345,
        263,
        258,
        493,
        427,
        122,
        38,
        430,
        46,
        457,
        292,
        284,
        331,
        6,
        449,
        452,
        35,
        89,
        243,
        487,
        425,
        410,
        52,
        378,
        207,
        317,
        479,
        192,
        36,
        346,
        275,
        44,
        330,
        177,
        334,
        366,
        376,
        386,
        201,
        110,
        106,
        409,
        355,
        211,
        40,
        10,
        399,
        168,
        359,
        136,
        135,
        315,
        392,
        339,
        34,
        300,
        408,
        202,
        99,
        448,
        483,
        104,
        16,
        238,
        225,
        371,
        431,
        121,
        37,
        398,
        419,
        407,
        268,
        411,
        9,
        200,
        175,
        173,
        298,
        312,
        253,
        265,
        199,
        111,
        210,
        337,
        180,
        367,
        215,
        120,
        266,
        94,
        227,
        112,
        343,
        196,
        91,
        132,
        234,
        148,
        251,
        65,
        203,
        484,
        133,
        22,
        249,
        50,
        205,
        374,
        477,
        63,
        119,
        130,
        216,
        68,
        388,
        437,
        167,
        450,
        218,
        497,
        191,
        193,
        260,
        240,
        126,
        287,
        387,
        127,
        262,
        73,
        289,
        325,
        137,
        349,
        164,
        41,
        198,
        401,
        485,
        79,
        352,
        66,
        149,
        362,
        379,
        236,
        395,
        288,
        357,
        377,
        231,
        182,
        414,
        453,
        482,
        278,
        125,
        394,
        30,
        252,
        162,
        146,
        294,
        62,
        375,
        255,
        276,
        495,
        172,
        190,
        486,
        82,
        113,
        42,
        123,
        241,
        150,
        496,
        358,
        233,
        350,
        285,
        169,
        166,
        197,
        15,
        488,
        282,
        321,
        195,
        165,
        402,
        415,
        187,
        223,
        139,
        97,
        13,
        18,
        498,
        385,
        92,
        438,
        347,
        459,
        58,
        109,
        138,
        478,
        296,
        445,
        214,
        26,
        341,
        320,
        324,
        444,
        7,
        305,
        143,
        27,
        264,
        107,
        134,
        499,
        154,
        95,
        47,
        269,
        86,
        100,
        54,
        403,
        103,
        380,
        369,
        4,
        102,
        492,
        3,
        306,
        368,
        78,
        45,
        171,
        302,
        209,
        473,
        64,
        53,
        219,
        140,
        316,
        55,
        186,
        155,
        84,
        436,
        356,
        23,
        476,
        93,
        141,
        456,
        336,
        461,
        281,
        311,
        494,
        156,
        43,
        153,
        280,
        272,
        460,
        220,
        421,
        12,
        247,
        204,
        254,
        51,
        20,
        328,
        393,
        348,
        384,
        442,
        420,
        426,
        250,
        291,
        279,
        183,
        90,
        313,
        335,
        373,
        33,
        429,
        248,
        244,
        235,
        176,
        370,
        98,
        226,
        160,
        118,
        131,
        274,
        76,
        185,
        144,
        237,
        61,
        400,
        389,
        116,
        277,
        447,
        174,
        267,
        360,
        439,
        475,
        428,
        217,
        491,
        159,
        412,
        468,
        59,
        96,
        322,
        307,
        490,
        157,
        1,
        31,
        441,
        101,
        21,
        48,
        467,
        304,
        32,
        462,
        446,
        161,
        124,
        25,
        318,
        80,
        413,
        179,
        338,
        81
    ],
    "Global Optimum": 0,
    "Algorithm": "Genetic algorithm",
    "Parameters": {
        "population": 30,
        "offspring": 30,
        "mutation probability": 0.002,
        "crossover probability": 0.9
    },
    "Fitness": 593490,
    "Solution": [
        212,
        295,
        39,
        469,
        29,
        471,
        206,
        481,
        472,
        221,
        397,
        405,
        72,
        208,
        158,
        363,
        245,
        152,
        465,
        19,
        364,
        372,
        87,
        108,
        333,
        224,
        390,
        416,
        283,
        417,
        14,
        309,
        391,
        67,
        256,
        299,
        443,
        422,
        213,
        142,
        145,
        88,
        85,
        344,
        489,
        340,
        74,
        381,
        28,
        432,
        326,
        451,
        57,
        329,
        0,
        404,
        319,
        424,
        239,
        178,
        361,
        354,
        60,
        17,
        440,
        257,
        342,
        77,
        83,
        308,
        5,
        232,
        314,
        128,
        261,
        434,
        8,
        11,
        458,
        271,
        24,
        273,
        189,
        474,
        464,
        423,
        382,
        70,
        117,
        114,
        151,
        246,
        222,
        163,
        75,
        2,
        396,
        351,
        323,
        293,
        105,
        229,
        383,
        463,
        353,
        184,
        228,
        259,
        286,
        129,
        455,
        147,
        435,
        290,
        310,
        418,
        49,
        242,
        466,
        454,
        480,
        301,
        170,
        230,
        71,
        56,
        470,
        188,
        327,
        365,
        181,
        406,
        303,
        433,
        115,
        194,
        297,
        332,
        69,
        270,
        345,
        263,
        258,
        493,
        427,
        122,
        38,
        430,
        46,
        457,
        292,
        284,
        331,
        6,
        449,
        452,
        35,
        89,
        243,
        487,
        425,
        410,
        52,
        378,
        207,
        317,
        479,
        192,
        36,
        346,
        275,
        44,
        330,
        177,
        334,
        366,
        376,
        386,
        201,
        110,
        106,
        409,
        355,
        211,
        40,
        10,
        399,
        168,
        359,
        136,
        135,
        315,
        392,
        339,
        34,
        300,
        408,
        202,
        99,
        448,
        483,
        104,
        16,
        238,
        225,
        371,
        431,
        121,
        37,
        398,
        419,
        407,
        268,
        411,
        9,
        200,
        175,
        173,
        298,
        312,
        253,
        265,
        199,
        111,
        210,
        337,
        180,
        367,
        215,
        120,
        266,
        94,
        227,
        112,
        343,
        196,
        91,
        132,
        234,
        148,
        251,
        65,
        203,
        484,
        133,
        22,
        249,
        50,
        205,
        374,
        477,
        63,
        119,
        130,
        216,
        68,
        388,
        437,
        167,
        450,
        218,
        497,
        191,
        193,
        260,
        240,
        126,
        287,
        387,
        127,
        262,
        73,
        289,
        325,
        137,
        349,
        164,
        41,
        198,
        401,
        485,
        79,
        352,
        66,
        149,
        362,
        379,
        236,
        395,
        288,
        357,
        377,
        231,
        182,
        414,
        453,
        482,
        278,
        125,
        394,
        30,
        252,
        162,
        146,
        294,
        62,
        375,
        255,
        276,
        495,
        172,
        190,
        486,
        82,
        113,
        42,
        123,
        241,
        150,
        496,
        358,
        233,
        350,
        285,
        169,
        166,
        197,
        15,
        488,
        282,
        321,
        195,
        165,
        402,
        415,
        187,
        223,
        139,
        97,
        13,
        18,
        498,
        385,
        92,
        438,
        347,
        459,
        58,
        109,
        138,
        478,
        296,
        445,
        214,
        26,
        341,
        320,
        324,
        444,
        7,
        305,
        143,
        27,
        264,
        107,
        134,
        499,
        154,
        95,
        47,
        269,
        86,
        100,
        54,
        403,
        103,
        380,
        369,
        4,
        102,
        492,
        3,
        306,
        368,
        78,
        45,
        171,
        302,
        209,
        473,
        64,
        53,
        219,
        140,
        316,
        55,
        186,
        155,
        84,
        436,
        356,
        23,
        476,
        93,
        141,
        456,
        336,
        461,
        281,
        311,
        494,
        156,
        43,
        153,
        280,
        272,
        460,
        220,
        421,
        12,
        247,
        204,
        254,
        51,
        20,
        328,
        393,
        348,
        384,
        442,
        420,
        426,
        250,
        291,
        279,
        183,
        90,
        313,
        335,
        373,
        33,
        429,
        248,
        244,
        235,
        176,
        370,
        98,
        226,
        160,
        118,
        131,
        274,
        76,
        185,
        144,
        237,
        61,
        400,
        389,
        116,
        277,
        447,
        174,
        267,
        360,
        439,
        475,
        428,
        217,
        491,
        159,
        412,
        468,
        59,
        96,
        322,
        307,
        490,
        157,
        1,
        31,
        441,
        101,
        21,
        48,
        467,
        304,
        32,
        462,
        446,
        161,
        124,
        25,
        318,
        80,
        413,
        179,
        338,
        81
    ],
    "Nb of functions evaluations": 200010,
    "Computational time in seconds": 1005.1045272350311,
    "Stopping criterion in evaluations": 200000
}